i2a=[Li,Ni,O] ; lno.r3m.conventional_supercell
 1.000000000000000
-20.041392  34.712704 -14.371560
  2.505174  -4.339088 -14.371560
 -2.505174  -1.446362   0.000000
Li Ni O 
54 54 108 
Direct
   0.9444444444444444   0.7222222222222222   0.4999999999999997
   0.9444444444444444   0.3888888888888891   0.4999999999999997
   0.9444444444444444   0.0555555555555556   0.5000000000000006
   0.8333333333333334   0.8333333333333334   0.4999999999999994
   0.8333333333333333   0.5000000000000001   0.5000000000000003
   0.8888888888888888   0.7777777777777778  -0.0000000000000003
   0.8888888888888888   0.4444444444444447   0.0000000000000006
   0.8333333333333333   0.1666666666666667   0.5000000000000003
   0.8888888888888888   0.1111111111111111  -0.0000000000000001
   0.7222222222222222   0.9444444444444444   0.4999999999999992
   0.7222222222222222   0.6111111111111113   0.5000000000000000
   0.6111111111111110   0.0555555555555556   0.4999999999999992
   0.7777777777777778   0.8888888888888890  -0.0000000000000006
   0.7777777777777777   0.5555555555555557   0.0000000000000003
   0.7222222222222222   0.2777777777777779   0.5000000000000000
   0.6666666666666666   0.0000000000000001  -0.0000000000000006
   0.7777777777777778   0.2222222222222222  -0.0000000000000003
   0.6111111111111110   0.7222222222222224   0.5000000000000002
   0.5000000000000000   0.1666666666666667   0.4999999999999998
   0.6666666666666666   0.6666666666666669   0.0000000000000005
   0.6111111111111110   0.3888888888888890   0.5000000000000002
   0.5555555555555556   0.1111111111111112   0.0000000000000001
   0.6666666666666667   0.3333333333333334  -0.0000000000000001
   0.5000000000000000   0.8333333333333335   0.5000000000000000
   0.3888888888888889   0.2777777777777778   0.5000000000000000
   0.5555555555555556   0.7777777777777779  -0.0000000000000000
   0.4999999999999999   0.5000000000000000   0.5000000000000001
   0.4444444444444444   0.2222222222222223  -0.0000000000000000
   0.5555555555555556   0.4444444444444445   0.0000000000000001
   0.3888888888888889   0.9444444444444446   0.4999999999999998
   0.2777777777777778   0.3888888888888890   0.5000000000000001
   0.2777777777777777   0.0555555555555557   0.4999999999999998
   0.4444444444444445   0.8888888888888891  -0.0000000000000003
   0.3888888888888888   0.6111111111111112   0.4999999999999999
   0.3333333333333333   0.3333333333333334  -0.0000000000000001
   0.3333333333333333   0.0000000000000002  -0.0000000000000003
   0.4444444444444444   0.5555555555555556  -0.0000000000000002
   0.1666666666666667   0.5000000000000001   0.5000000000000002
   0.1666666666666667   0.1666666666666668   0.5000000000000000
   0.2777777777777778   0.7222222222222223   0.5000000000000001
   0.2222222222222222   0.4444444444444445   0.0000000000000003
   0.2222222222222222   0.1111111111111113   0.0000000000000001
   0.3333333333333333   0.6666666666666667   0.0000000000000000
   0.0555555555555556   0.6111111111111112   0.5000000000000001
   0.0555555555555556   0.2777777777777780   0.4999999999999999
   0.1666666666666667   0.8333333333333334   0.5000000000000000
   0.1111111111111111   0.5555555555555557   0.0000000000000001
   0.1111111111111111   0.2222222222222224  -0.0000000000000000
   0.2222222222222222   0.7777777777777778   0.0000000000000000
   0.0555555555555556   0.9444444444444445   0.4999999999999999
   0.0000000000000000   0.6666666666666667   0.0000000000000001
   0.0000000000000000   0.3333333333333335  -0.0000000000000000
   0.1111111111111111   0.8888888888888890   0.0000000000000000
   0.0000000000000000   0.0000000000000000   0.0000000000000000
   0.8888888888888888   0.6111111111111114   0.5000000000000003
   0.8888888888888888   0.2777777777777779   0.4999999999999997
   0.9444444444444444   0.5555555555555558  -0.0000000000000001
   0.9444444444444444   0.2222222222222223  -0.0000000000000001
   0.7777777777777779   0.7222222222222224   0.5000000000000003
   0.7777777777777778   0.3888888888888891   0.4999999999999994
   0.8888888888888888   0.9444444444444446   0.5000000000000003
   0.8333333333333334   0.6666666666666669   0.0000000000000006
   0.7777777777777777   0.0555555555555556   0.5000000000000003
   0.8333333333333333   0.3333333333333335  -0.0000000000000003
   0.9444444444444444   0.8888888888888892   0.0000000000000006
   0.8333333333333333   0.0000000000000002   0.0000000000000006
   0.6666666666666667   0.8333333333333335   0.4999999999999996
   0.6666666666666666   0.5000000000000001   0.4999999999999992
   0.7222222222222223   0.7777777777777780  -0.0000000000000001
   0.6666666666666666   0.1666666666666668   0.5000000000000000
   0.7222222222222222   0.4444444444444446  -0.0000000000000006
   0.7222222222222221   0.1111111111111112   0.0000000000000003
   0.5555555555555556   0.9444444444444446   0.5000000000000006
   0.4444444444444445   0.0555555555555557   0.5000000000000006
   0.5555555555555556   0.6111111111111113   0.5000000000000002
   0.6111111111111112   0.8888888888888891   0.0000000000000005
   0.5555555555555556   0.2777777777777778   0.5000000000000007
   0.5000000000000000   0.0000000000000002   0.0000000000000005
   0.6111111111111112   0.5555555555555557   0.0000000000000005
   0.6111111111111110   0.2222222222222224   0.0000000000000010
   0.3333333333333334   0.1666666666666669   0.5000000000000003
   0.4444444444444445   0.7222222222222223   0.5000000000000004
   0.4444444444444445   0.3888888888888890   0.5000000000000004
   0.3888888888888889   0.1111111111111113   0.0000000000000003
   0.5000000000000000   0.6666666666666669   0.0000000000000004
   0.5000000000000000   0.3333333333333334   0.0000000000000004
   0.2222222222222222   0.2777777777777780   0.5000000000000003
   0.3333333333333334   0.8333333333333335   0.5000000000000001
   0.3333333333333333   0.5000000000000001   0.5000000000000002
   0.2777777777777778   0.2222222222222224   0.0000000000000003
   0.3888888888888889   0.7777777777777779  -0.0000000000000001
   0.3888888888888889   0.4444444444444445   0.0000000000000002
   0.1111111111111111   0.3888888888888891   0.5000000000000003
   0.2222222222222223   0.9444444444444446   0.5000000000000002
   0.1111111111111111   0.0555555555555556   0.5000000000000002
   0.2222222222222222   0.6111111111111112   0.5000000000000002
   0.1666666666666667   0.3333333333333335   0.0000000000000004
   0.2777777777777778   0.8888888888888891   0.0000000000000003
   0.1666666666666667   0.0000000000000000   0.0000000000000003
   0.2777777777777778   0.5555555555555557   0.0000000000000002
   0.0000000000000000   0.5000000000000002   0.5000000000000004
   0.0000000000000000   0.1666666666666667   0.5000000000000001
   0.1111111111111111   0.7222222222222223   0.5000000000000001
   0.0555555555555556   0.4444444444444446   0.0000000000000004
   0.0555555555555556   0.1111111111111111   0.0000000000000001
   0.1666666666666667   0.6666666666666667   0.0000000000000002
   0.0000000000000000   0.8333333333333335   0.5000000000000001
   0.0555555555555556   0.7777777777777779   0.0000000000000002
   0.9175604853969801   0.1738172165091745   0.4999999999999997
   0.9713284034919086   0.9372938946019366   0.4999999999999997
   0.9713284034919087   0.6039605612686033   0.4999999999999997
   0.9175604853969801   0.5071505498425078   0.4999999999999997
   0.8602172923807976   0.0484050057130478   0.4999999999999997
   0.9713284034919086   0.2706272279352698   0.5000000000000006
   0.9731160409525357   0.1182616609536188  -0.0000000000000007
   0.9731160409525357   0.4515949942869522  -0.0000000000000001
   0.8064493742858689   0.2849283276202855   0.5000000000000003
   0.8602172923807976   0.7150716723797144   0.5000000000000003
   0.8064493742858690   0.6182616609536190   0.4999999999999994
   0.7491061812696865   0.1595161168241589   0.4999999999999994
   0.8602172923807975   0.3817383390463810   0.5000000000000003
   0.8620049298414245   0.2293727720647301   0.0000000000000006
   0.9157728479363531   0.9928494501574922  -0.0000000000000003
   0.9175604853969800   0.8404838831758412   0.5000000000000003
   0.9157728479363532   0.6595161168241589   0.0000000000000006
   0.8620049298414245   0.5627061053980634  -0.0000000000000003
   0.8046617368252420   0.1039605612686034  -0.0000000000000003
   0.9157728479363531   0.3261827834908254  -0.0000000000000001
   0.9731160409525356   0.7849283276202856  -0.0000000000000001
   0.6953382631747579   0.3960394387313967   0.5000000000000000
   0.7491061812696865   0.8261827834908255   0.5000000000000000
   0.6953382631747579   0.7293727720647301   0.4999999999999992
   0.6379950701585754   0.2706272279352700   0.4999999999999992
   0.7491061812696864   0.4928494501574922   0.5000000000000000
   0.7508938187303134   0.3404838831758411   0.0000000000000003
   0.8064493742858689   0.9515949942869524   0.5000000000000000
   0.8046617368252420   0.7706272279352699   0.0000000000000003
   0.7508938187303135   0.6738172165091746  -0.0000000000000006
   0.6935506257141310   0.2150716723797145  -0.0000000000000006
   0.6953382631747579   0.0627061053980635   0.5000000000000000
   0.8046617368252420   0.4372938946019365  -0.0000000000000003
   0.8620049298414245   0.8960394387313967  -0.0000000000000003
   0.7508938187303135   0.0071505498425078  -0.0000000000000003
   0.5842271520636467   0.5071505498425077   0.5000000000000002
   0.6379950701585754   0.9372938946019366   0.5000000000000002
   0.5842271520636468   0.8404838831758411   0.4999999999999998
   0.5268839590474643   0.3817383390463811   0.4999999999999998
   0.5268839590474642   0.0484050057130476   0.5000000000000002
   0.6379950701585754   0.6039605612686032   0.5000000000000002
   0.6397827076192023   0.4515949942869523   0.0000000000000005
   0.6935506257141310   0.8817383390463811   0.0000000000000005
   0.6397827076192023   0.7849283276202856   0.0000000000000001
   0.5824395146030198   0.3261827834908256   0.0000000000000001
   0.5842271520636467   0.1738172165091745   0.5000000000000002
   0.6935506257141310   0.5484050057130476  -0.0000000000000001
   0.6397827076192024   0.1182616609536189  -0.0000000000000001
   0.4731160409525356   0.6182616609536189   0.5000000000000000
   0.4731160409525357   0.9515949942869523   0.5000000000000000
   0.4157728479363532   0.4928494501574923   0.5000000000000000
   0.4157728479363531   0.1595161168241587   0.5000000000000000
   0.3620049298414246   0.0627061053980635   0.5000000000000000
   0.5268839590474642   0.7150716723797144   0.5000000000000001
   0.5286715965080913   0.5627061053980633  -0.0000000000000000
   0.5824395146030198   0.9928494501574922  -0.0000000000000000
   0.5286715965080913   0.8960394387313967  -0.0000000000000000
   0.4713284034919087   0.4372938946019367  -0.0000000000000000
   0.4731160409525357   0.2849283276202856   0.5000000000000001
   0.4713284034919087   0.1039605612686031  -0.0000000000000000
   0.4175604853969802   0.0071505498425079  -0.0000000000000000
   0.5824395146030198   0.6595161168241588   0.0000000000000001
   0.5286715965080913   0.2293727720647300   0.0000000000000001
   0.3620049298414245   0.7293727720647301   0.4999999999999998
   0.3046617368252421   0.6039605612686034   0.5000000000000001
   0.3046617368252420   0.2706272279352698   0.4999999999999998
   0.2508938187303135   0.1738172165091746   0.5000000000000001
   0.4157728479363532   0.8261827834908254   0.4999999999999999
   0.4175604853969801   0.6738172165091745  -0.0000000000000003
   0.3602172923807976   0.5484050057130478  -0.0000000000000001
   0.3620049298414246   0.3960394387313967   0.4999999999999999
   0.3602172923807976   0.2150716723797143  -0.0000000000000003
   0.3064493742858690   0.1182616609536190  -0.0000000000000001
   0.4713284034919087   0.7706272279352698  -0.0000000000000002
   0.4175604853969802   0.3404838831758412  -0.0000000000000002
   0.2508938187303135   0.8404838831758411   0.5000000000000000
   0.1935506257141310   0.7150716723797145   0.5000000000000002
   0.1935506257141310   0.3817383390463809   0.5000000000000000
   0.1397827076192024   0.2849283276202857   0.5000000000000002
   0.3046617368252421   0.9372938946019366   0.5000000000000001
   0.3064493742858690   0.7849283276202855   0.0000000000000001
   0.1935506257141310   0.0484050057130477   0.5000000000000001
   0.2491061812696865   0.6595161168241589   0.0000000000000003
   0.2508938187303135   0.5071505498425078   0.5000000000000001
   0.2491061812696865   0.3261827834908254   0.0000000000000001
   0.1953382631747579   0.2293727720647301   0.0000000000000003
   0.3602172923807976   0.8817383390463810   0.0000000000000000
   0.3064493742858690   0.4515949942869523   0.0000000000000000
   0.1397827076192024   0.9515949942869523   0.4999999999999999
   0.0286715965080913   0.0627061053980633   0.4999999999999999
   0.0824395146030199   0.8261827834908256   0.5000000000000001
   0.0824395146030198   0.4928494501574920   0.4999999999999999
   0.0286715965080913   0.3960394387313968   0.5000000000000001
   0.1953382631747579   0.8960394387313967  -0.0000000000000000
   0.0824395146030198   0.1595161168241589   0.5000000000000000
   0.0842271520636468   0.0071505498425077  -0.0000000000000000
   0.1379950701585754   0.7706272279352701   0.0000000000000001
   0.1397827076192024   0.6182616609536190   0.5000000000000000
   0.1379950701585754   0.4372938946019365  -0.0000000000000000
   0.0842271520636468   0.3404838831758412   0.0000000000000001
   0.2491061812696865   0.9928494501574922   0.0000000000000000
   0.1379950701585754   0.1039605612686033   0.0000000000000000
   0.1953382631747579   0.5627061053980634   0.0000000000000000
   0.0268839590474643   0.8817383390463812   0.0000000000000001
   0.0286715965080913   0.7293727720647301   0.4999999999999999
   0.0268839590474643   0.5484050057130476  -0.0000000000000000
   0.0268839590474643   0.2150716723797144   0.0000000000000000
   0.0842271520636468   0.6738172165091745   0.0000000000000000
