i2a=[Li,Ni,O] ; lno.r3m.conventional_supercell
1.0
       14.1937675476         0.0000000000         0.0000000000
        0.0447228603         5.0730975120         0.0000000000
        0.0000007704        -0.0000003920         2.8927252293
   Li   Ni    O
   54   54  108
Direct
     0.833336115         0.166668788         0.500000000
     0.833336115         0.166667849         0.500000000
     0.833336115         0.166666836         0.500000000
     0.500002444         0.500002444         0.500000000
     0.500002444         0.500001490         0.500000000
     0.666669369         0.333335698         0.000000000
     0.666669369         0.333334684         0.000000000
     0.500002444         0.500000536         0.500000000
     0.666669369         0.333333671         0.000000000
     0.166668788         0.833336115         0.500000000
     0.166668788         0.833335161         0.500000000
     0.833335161         0.166666836         0.500000000
     0.333335698         0.666669369         0.000000000
     0.333335698         0.666668415         0.000000000
     0.166668788         0.833334208         0.500000000
     0.000002060         0.000000000         0.000000000
     0.333335698         0.666667342         0.000000000
     0.833335161         0.166668788         0.500000000
     0.500001490         0.500000536         0.500000000
     0.000002060         0.000002060         0.000000000
     0.833335161         0.166667849         0.500000000
     0.666668415         0.333333671         0.000000000
     0.000002060         0.000001030         0.000000000
     0.500001490         0.500002444         0.500000000
     0.166667849         0.833334208         0.500000000
     0.666668415         0.333335698         0.000000000
     0.500001490         0.500001490         0.500000000
     0.333334684         0.666667342         0.000000000
     0.666668415         0.333334684         0.000000000
     0.166667849         0.833336115         0.500000000
     0.833334208         0.166667849         0.500000000
     0.833334208         0.166666836         0.500000000
     0.333334684         0.666669369         0.000000000
     0.166667849         0.833335161         0.500000000
     0.000001030         0.000001030         0.000000000
     0.000001030         0.000000000         0.000000000
     0.333334684         0.666668415         0.000000000
     0.500000536         0.500001490         0.500000000
     0.500000536         0.500000536         0.500000000
     0.833334208         0.166668788         0.500000000
     0.666667342         0.333334684         0.000000000
     0.666667342         0.333333671         0.000000000
     0.000001030         0.000002060         0.000000000
     0.166666836         0.833335161         0.500000000
     0.166666836         0.833334208         0.500000000
     0.500000536         0.500002444         0.500000000
     0.333333671         0.666668415         0.000000000
     0.333333671         0.666667342         0.000000000
     0.666667342         0.333335698         0.000000000
     0.166666836         0.833336115         0.500000000
     0.000000000         0.000002060         0.000000000
     0.000000000         0.000001030         0.000000000
     0.333333671         0.666669369         0.000000000
     0.000000000         0.000000000         0.000000000
     0.666669369         0.833335161         0.500000000
     0.666669369         0.833334208         0.500000000
     0.833336115         0.666668415         0.000000000
     0.833336115         0.666667342         0.000000000
     0.333335698         0.166668788         0.500000000
     0.333335698         0.166667849         0.500000000
     0.666669369         0.833336115         0.500000000
     0.500002444         0.000002060         0.000000000
     0.333335698         0.166666836         0.500000000
     0.500002444         0.000001030         0.000000000
     0.833336115         0.666669369         0.000000000
     0.500002444         0.000000000         0.000000000
     0.000002060         0.500002444         0.500000000
     0.000002060         0.500001490         0.500000000
     0.166668788         0.333335698         0.000000000
     0.000002060         0.500000536         0.500000000
     0.166668788         0.333334684         0.000000000
     0.166668788         0.333333671         0.000000000
     0.666668415         0.833336115         0.500000000
     0.333334684         0.166666836         0.500000000
     0.666668415         0.833335161         0.500000000
     0.833335161         0.666669369         0.000000000
     0.666668415         0.833334208         0.500000000
     0.500001490         0.000000000         0.000000000
     0.833335161         0.666668415         0.000000000
     0.833335161         0.666667342         0.000000000
     0.000001030         0.500000536         0.500000000
     0.333334684         0.166668788         0.500000000
     0.333334684         0.166667849         0.500000000
     0.166667849         0.333333671         0.000000000
     0.500001490         0.000002060         0.000000000
     0.500001490         0.000001030         0.000000000
     0.666667342         0.833334208         0.500000000
     0.000001030         0.500002444         0.500000000
     0.000001030         0.500001490         0.500000000
     0.833334208         0.666667342         0.000000000
     0.166667849         0.333335698         0.000000000
     0.166667849         0.333334684         0.000000000
     0.333333671         0.166667849         0.500000000
     0.666667342         0.833336115         0.500000000
     0.333333671         0.166666836         0.500000000
     0.666667342         0.833335161         0.500000000
     0.500000536         0.000001030         0.000000000
     0.833334208         0.666669369         0.000000000
     0.500000536         0.000000000         0.000000000
     0.833334208         0.666668415         0.000000000
     0.000000000         0.500001490         0.500000000
     0.000000000         0.500000536         0.500000000
     0.333333671         0.166668788         0.500000000
     0.166666836         0.333334684         0.000000000
     0.166666836         0.333333671         0.000000000
     0.500000536         0.000002060         0.000000000
     0.000000000         0.500002444         0.500000000
     0.166666836         0.333335698         0.000000000
     0.752684116         0.521452188         0.500000000
     0.913988054         0.811884463         0.500000000
     0.913988054         0.811883509         0.500000000
     0.752684116         0.521453142         0.500000000
     0.580654383         0.145215169         0.500000000
     0.913988054         0.811882496         0.500000000
     0.919351041         0.354785323         0.000000000
     0.919351041         0.354786366         0.000000000
     0.419350475         0.854785800         0.500000000
     0.580654383         0.145217180         0.500000000
     0.419350475         0.854786754         0.500000000
     0.247320756         0.478548825         0.500000000
     0.580654383         0.145216152         0.500000000
     0.586017370         0.688118994         0.000000000
     0.747321308         0.978551388         0.000000000
     0.752684116         0.521454215         0.500000000
     0.747321308         0.978550255         0.000000000
     0.586017370         0.688120008         0.000000000
     0.413987666         0.311881989         0.000000000
     0.747321308         0.978549302         0.000000000
     0.919351041         0.354787320         0.000000000
     0.086016834         0.188119471         0.500000000
     0.247320756         0.478550822         0.500000000
     0.086016834         0.188120589         0.500000000
     0.913987100         0.811882496         0.500000000
     0.247320756         0.478549808         0.500000000
     0.252683759         0.021452643         0.000000000
     0.419350475         0.854787886         0.500000000
     0.413987666         0.311883926         0.000000000
     0.252683759         0.021453673         0.000000000
     0.080654018         0.645215690         0.000000000
     0.086016834         0.188118502         0.500000000
     0.413987666         0.311882973         0.000000000
     0.586017370         0.688120961         0.000000000
     0.252683759         0.021451671         0.000000000
     0.752683163         0.521453142         0.500000000
     0.913987100         0.811884463         0.500000000
     0.752683163         0.521454215         0.500000000
     0.580653489         0.145216152         0.500000000
     0.580653489         0.145215169         0.500000000
     0.913987100         0.811883509         0.500000000
     0.919350088         0.354786366         0.000000000
     0.080654018         0.645217717         0.000000000
     0.919350088         0.354787320         0.000000000
     0.747320354         0.978549302         0.000000000
     0.752683163         0.521452188         0.500000000
     0.080654018         0.645216644         0.000000000
     0.919350088         0.354785323         0.000000000
     0.419349551         0.854786754         0.500000000
     0.419349551         0.854787886         0.500000000
     0.247319818         0.478549808         0.500000000
     0.247319818         0.478548825         0.500000000
     0.086015895         0.188118502         0.500000000
     0.580653489         0.145217180         0.500000000
     0.586016476         0.688120008         0.000000000
     0.747320354         0.978551388         0.000000000
     0.586016476         0.688120961         0.000000000
     0.413986623         0.311882973         0.000000000
     0.419349551         0.854785800         0.500000000
     0.413986623         0.311881989         0.000000000
     0.252682716         0.021451671         0.000000000
     0.747320354         0.978550255         0.000000000
     0.586016476         0.688118994         0.000000000
     0.086015895         0.188120589         0.500000000
     0.913986146         0.811883509         0.500000000
     0.913986146         0.811882496         0.500000000
     0.752682269         0.521452188         0.500000000
     0.247319818         0.478550822         0.500000000
     0.252682716         0.021453673         0.000000000
     0.080652989         0.645216644         0.000000000
     0.086015895         0.188119471         0.500000000
     0.080652989         0.645215690         0.000000000
     0.919349074         0.354785323         0.000000000
     0.413986623         0.311883926         0.000000000
     0.252682716         0.021452643         0.000000000
     0.752682269         0.521454215         0.500000000
     0.580652475         0.145217180         0.500000000
     0.580652475         0.145216152         0.500000000
     0.419348568         0.854785800         0.500000000
     0.913986146         0.811884463         0.500000000
     0.919349074         0.354787320         0.000000000
     0.580652475         0.145215169         0.500000000
     0.747319281         0.978550255         0.000000000
     0.752682269         0.521453142         0.500000000
     0.747319281         0.978549302         0.000000000
     0.586015403         0.688118994         0.000000000
     0.080652989         0.645217717         0.000000000
     0.919349074         0.354786366         0.000000000
     0.419348568         0.854787886         0.500000000
     0.086014874         0.188118502         0.500000000
     0.247318789         0.478550822         0.500000000
     0.247318789         0.478549808         0.500000000
     0.086014874         0.188119471         0.500000000
     0.586015403         0.688120961         0.000000000
     0.247318789         0.478548825         0.500000000
     0.252681702         0.021451671         0.000000000
     0.413985610         0.311883926         0.000000000
     0.419348568         0.854786754         0.500000000
     0.413985610         0.311882973         0.000000000
     0.252681702         0.021452643         0.000000000
     0.747319281         0.978551388         0.000000000
     0.413985610         0.311881989         0.000000000
     0.586015403         0.688120008         0.000000000
     0.080651961         0.645217717         0.000000000
     0.086014874         0.188120589         0.500000000
     0.080651961         0.645216644         0.000000000
     0.080651961         0.645215690         0.000000000
     0.252681702         0.021453673         0.000000000
